language ESSENCE' 1.0

letting boxes_PartitionAsSet_ExplicitR2_Occurrence be
        [[false, false, true, false, true; int(1..5)], [true, true, false, true, false; int(1..5)]; int(1..2)]
$ Visualisation for boxes_PartitionAsSet_ExplicitR2_Occurrence
$ _ _ T _ T
$ T T _ T _

